min: T;
r_00_2 = 0;
r_01_2 = 0;
r_02_2 = 0;
r_03_2 = 0;
2.2 a_10_0 + 2.2 a_11_0 + 2.2 a_01_0 + 2.2 a_04_0 + 2.2 a_05_0 + 11 x_01_0 + r_01_0 x_01_0 <= r_04_0;
2.2 a_10_1 + 2.2 a_11_1 + 2.2 a_01_1 + 2.2 a_04_1 + 2.2 a_05_1 + 11 x_01_1 + r_01_1 x_01_1 <= r_04_1;
2.2 a_10_2 + 2.2 a_11_2 + 2.2 a_01_2 + 2.2 a_04_2 + 2.2 a_05_2 + 11 x_01_2 + r_01_2 x_01_2 <= r_04_2;
2.2 a_10_0 + 2.2 a_11_0 + 2.2 a_01_0 + 2.2 a_04_0 + 2.2 a_05_0 + 11 x_01_0 + r_01_0 x_01_0 <= r_05_0;
2.2 a_10_1 + 2.2 a_11_1 + 2.2 a_01_1 + 2.2 a_04_1 + 2.2 a_05_1 + 11 x_01_1 + r_01_1 x_01_1 <= r_05_1;
2.2 a_10_2 + 2.2 a_11_2 + 2.2 a_01_2 + 2.2 a_04_2 + 2.2 a_05_2 + 11 x_01_2 + r_01_2 x_01_2 <= r_05_2;
4.4 a_12_0 + 4.4 a_13_0 + 4.4 a_02_0 + 4.4 a_06_0 + 4.4 a_07_0 + 11 x_02_0 + r_02_0 x_02_0 <= r_06_0;
4.4 a_12_1 + 4.4 a_13_1 + 4.4 a_02_1 + 4.4 a_06_1 + 4.4 a_07_1 + 11 x_02_1 + r_02_1 x_02_1 <= r_06_1;
4.4 a_12_2 + 4.4 a_13_2 + 4.4 a_02_2 + 4.4 a_06_2 + 4.4 a_07_2 + 11 x_02_2 + r_02_2 x_02_2 <= r_06_2;
4.4 a_12_0 + 4.4 a_13_0 + 4.4 a_02_0 + 4.4 a_06_0 + 4.4 a_07_0 + 11 x_02_0 + r_02_0 x_02_0 <= r_07_0;
4.4 a_12_1 + 4.4 a_13_1 + 4.4 a_02_1 + 4.4 a_06_1 + 4.4 a_07_1 + 11 x_02_1 + r_02_1 x_02_1 <= r_07_1;
4.4 a_12_2 + 4.4 a_13_2 + 4.4 a_02_2 + 4.4 a_06_2 + 4.4 a_07_2 + 11 x_02_2 + r_02_2 x_02_2 <= r_07_2;
4.4 a_14_0 + 4.4 a_15_0 + 4.4 a_03_0 + 4.4 a_08_0 + 4.4 a_09_0 + 11 x_03_0 + r_03_0 x_03_0 <= r_08_0;
4.4 a_14_1 + 4.4 a_15_1 + 4.4 a_03_1 + 4.4 a_08_1 + 4.4 a_09_1 + 11 x_03_1 + r_03_1 x_03_1 <= r_08_1;
4.4 a_14_2 + 4.4 a_15_2 + 4.4 a_03_2 + 4.4 a_08_2 + 4.4 a_09_2 + 11 x_03_2 + r_03_2 x_03_2 <= r_08_2;
4.4 a_14_0 + 4.4 a_15_0 + 4.4 a_03_0 + 4.4 a_08_0 + 4.4 a_09_0 + 11 x_03_0 + r_03_0 x_03_0 <= r_09_0;
4.4 a_14_1 + 4.4 a_15_1 + 4.4 a_03_1 + 4.4 a_08_1 + 4.4 a_09_1 + 11 x_03_1 + r_03_1 x_03_1 <= r_09_1;
4.4 a_14_2 + 4.4 a_15_2 + 4.4 a_03_2 + 4.4 a_08_2 + 4.4 a_09_2 + 11 x_03_2 + r_03_2 x_03_2 <= r_09_2;
4.4 a_10_0 + 4.4 a_04_0 + 11 x_04_0 + r_04_0 x_04_0 <= r_10_0;
4.4 a_10_1 + 4.4 a_04_1 + 11 x_04_1 + r_04_1 x_04_1 <= r_10_1;
4.4 a_10_2 + 4.4 a_04_2 + 11 x_04_2 + r_04_2 x_04_2 <= r_10_2;
4.4 a_11_0 + 4.4 a_05_0 + 11 x_05_0 + r_05_0 x_05_0 <= r_11_0;
4.4 a_11_1 + 4.4 a_05_1 + 11 x_05_1 + r_05_1 x_05_1 <= r_11_1;
4.4 a_11_2 + 4.4 a_05_2 + 11 x_05_2 + r_05_2 x_05_2 <= r_11_2;
2.2 a_12_0 + 2.2 a_06_0 + 11 x_06_0 + r_06_0 x_06_0 <= r_12_0;
4.4 a_10_0 + 11 x_10_0 + r_10_0 x_10_0 <= r_12_0;
2.2 a_12_1 + 2.2 a_06_1 + 11 x_06_1 + r_06_1 x_06_1 <= r_12_1;
4.4 a_10_1 + 11 x_10_1 + r_10_1 x_10_1 <= r_12_1;
2.2 a_12_2 + 2.2 a_06_2 + 11 x_06_2 + r_06_2 x_06_2 <= r_12_2;
4.4 a_10_2 + 11 x_10_2 + r_10_2 x_10_2 <= r_12_2;
4.4 a_13_0 + 4.4 a_07_0 + 11 x_07_0 + r_07_0 x_07_0 <= r_13_0;
4.4 a_13_1 + 4.4 a_07_1 + 11 x_07_1 + r_07_1 x_07_1 <= r_13_1;
4.4 a_13_2 + 4.4 a_07_2 + 11 x_07_2 + r_07_2 x_07_2 <= r_13_2;
4.4 a_14_0 + 4.4 a_08_0 + 11 x_08_0 + r_08_0 x_08_0 <= r_14_0;
2.2 a_13_0 + 11 x_13_0 + r_13_0 x_13_0 <= r_14_0;
4.4 a_14_1 + 4.4 a_08_1 + 11 x_08_1 + r_08_1 x_08_1 <= r_14_1;
2.2 a_13_1 + 11 x_13_1 + r_13_1 x_13_1 <= r_14_1;
4.4 a_14_2 + 4.4 a_08_2 + 11 x_08_2 + r_08_2 x_08_2 <= r_14_2;
2.2 a_13_2 + 11 x_13_2 + r_13_2 x_13_2 <= r_14_2;
2.2 a_15_0 + 2.2 a_09_0 + 11 x_09_0 + r_09_0 x_09_0 <= r_15_0;
4.4 a_11_0 + 11 x_11_0 + r_11_0 x_11_0 <= r_15_0;
2.2 a_15_1 + 2.2 a_09_1 + 11 x_09_1 + r_09_1 x_09_1 <= r_15_1;
4.4 a_11_1 + 11 x_11_1 + r_11_1 x_11_1 <= r_15_1;
2.2 a_15_2 + 2.2 a_09_2 + 11 x_09_2 + r_09_2 x_09_2 <= r_15_2;
4.4 a_11_2 + 11 x_11_2 + r_11_2 x_11_2 <= r_15_2;
r_00_0 x_00_0 <= t_00_0;
r_00_1 x_00_1 <= t_00_1;
r_00_2 x_00_2 <= t_00_2;
2.2 a_10_0 + 2.2 a_11_0 + 2.2 a_01_0 + 2.2 a_04_0 + 2.2 a_05_0 + 11 x_01_0 + r_01_0 x_01_0 <= t_01_0;
2.2 a_10_1 + 2.2 a_11_1 + 2.2 a_01_1 + 2.2 a_04_1 + 2.2 a_05_1 + 11 x_01_1 + r_01_1 x_01_1 <= t_01_1;
2.2 a_10_2 + 2.2 a_11_2 + 2.2 a_01_2 + 2.2 a_04_2 + 2.2 a_05_2 + 11 x_01_2 + r_01_2 x_01_2 <= t_01_2;
4.4 a_12_0 + 4.4 a_13_0 + 4.4 a_02_0 + 4.4 a_06_0 + 4.4 a_07_0 + 11 x_02_0 + r_02_0 x_02_0 <= t_02_0;
4.4 a_12_1 + 4.4 a_13_1 + 4.4 a_02_1 + 4.4 a_06_1 + 4.4 a_07_1 + 11 x_02_1 + r_02_1 x_02_1 <= t_02_1;
4.4 a_12_2 + 4.4 a_13_2 + 4.4 a_02_2 + 4.4 a_06_2 + 4.4 a_07_2 + 11 x_02_2 + r_02_2 x_02_2 <= t_02_2;
4.4 a_14_0 + 4.4 a_15_0 + 4.4 a_03_0 + 4.4 a_08_0 + 4.4 a_09_0 + 11 x_03_0 + r_03_0 x_03_0 <= t_03_0;
4.4 a_14_1 + 4.4 a_15_1 + 4.4 a_03_1 + 4.4 a_08_1 + 4.4 a_09_1 + 11 x_03_1 + r_03_1 x_03_1 <= t_03_1;
4.4 a_14_2 + 4.4 a_15_2 + 4.4 a_03_2 + 4.4 a_08_2 + 4.4 a_09_2 + 11 x_03_2 + r_03_2 x_03_2 <= t_03_2;
4.4 a_10_0 + 4.4 a_04_0 + 11 x_04_0 + r_04_0 x_04_0 <= t_04_0;
4.4 a_10_1 + 4.4 a_04_1 + 11 x_04_1 + r_04_1 x_04_1 <= t_04_1;
4.4 a_10_2 + 4.4 a_04_2 + 11 x_04_2 + r_04_2 x_04_2 <= t_04_2;
4.4 a_11_0 + 4.4 a_05_0 + 11 x_05_0 + r_05_0 x_05_0 <= t_06_0;
4.4 a_11_1 + 4.4 a_05_1 + 11 x_05_1 + r_05_1 x_05_1 <= t_06_1;
4.4 a_11_2 + 4.4 a_05_2 + 11 x_05_2 + r_05_2 x_05_2 <= t_06_2;
2.2 a_12_0 + 2.2 a_06_0 + 11 x_06_0 + r_06_0 x_06_0 <= t_04_0;
2.2 a_12_1 + 2.2 a_06_1 + 11 x_06_1 + r_06_1 x_06_1 <= t_04_1;
2.2 a_12_2 + 2.2 a_06_2 + 11 x_06_2 + r_06_2 x_06_2 <= t_04_2;
4.4 a_13_0 + 4.4 a_07_0 + 11 x_07_0 + r_07_0 x_07_0 <= t_05_0;
4.4 a_13_1 + 4.4 a_07_1 + 11 x_07_1 + r_07_1 x_07_1 <= t_05_1;
4.4 a_13_2 + 4.4 a_07_2 + 11 x_07_2 + r_07_2 x_07_2 <= t_05_2;
4.4 a_14_0 + 4.4 a_08_0 + 11 x_08_0 + r_08_0 x_08_0 <= t_05_0;
4.4 a_14_1 + 4.4 a_08_1 + 11 x_08_1 + r_08_1 x_08_1 <= t_05_1;
4.4 a_14_2 + 4.4 a_08_2 + 11 x_08_2 + r_08_2 x_08_2 <= t_05_2;
2.2 a_15_0 + 2.2 a_09_0 + 11 x_09_0 + r_09_0 x_09_0 <= t_06_0;
2.2 a_15_1 + 2.2 a_09_1 + 11 x_09_1 + r_09_1 x_09_1 <= t_06_1;
2.2 a_15_2 + 2.2 a_09_2 + 11 x_09_2 + r_09_2 x_09_2 <= t_06_2;
4.4 a_10_0 + 11 x_10_0 + r_10_0 x_10_0 <= t_07_0;
4.4 a_10_1 + 11 x_10_1 + r_10_1 x_10_1 <= t_07_1;
4.4 a_10_2 + 11 x_10_2 + r_10_2 x_10_2 <= t_07_2;
4.4 a_11_0 + 11 x_11_0 + r_11_0 x_11_0 <= t_07_0;
4.4 a_11_1 + 11 x_11_1 + r_11_1 x_11_1 <= t_07_1;
4.4 a_11_2 + 11 x_11_2 + r_11_2 x_11_2 <= t_07_2;
4.4 a_12_0 + 11 x_12_0 + r_12_0 x_12_0 <= t_07_0;
4.4 a_12_1 + 11 x_12_1 + r_12_1 x_12_1 <= t_07_1;
4.4 a_12_2 + 11 x_12_2 + r_12_2 x_12_2 <= t_07_2;
2.2 a_13_0 + 11 x_13_0 + r_13_0 x_13_0 <= t_07_0;
2.2 a_13_1 + 11 x_13_1 + r_13_1 x_13_1 <= t_07_1;
2.2 a_13_2 + 11 x_13_2 + r_13_2 x_13_2 <= t_07_2;
2.2 a_14_0 + 11 x_14_0 + r_14_0 x_14_0 <= t_07_0;
2.2 a_14_1 + 11 x_14_1 + r_14_1 x_14_1 <= t_07_1;
2.2 a_14_2 + 11 x_14_2 + r_14_2 x_14_2 <= t_07_2;
4.4 a_15_0 + 11 x_15_0 + r_15_0 x_15_0 <= t_07_0;
4.4 a_15_1 + 11 x_15_1 + r_15_1 x_15_1 <= t_07_1;
4.4 a_15_2 + 11 x_15_2 + r_15_2 x_15_2 <= t_07_2;
r_00_1 <= r_00_0;
r_00_2 <= r_00_1;
2.2 a_10_1 + 2.2 a_11_1 + 2.2 a_01_1 + 2.2 a_04_1 + 2.2 a_05_1 + r_01_1 + 11 x_01_1 <= r_01_0;
2.2 a_10_2 + 2.2 a_11_2 + 2.2 a_01_2 + 2.2 a_04_2 + 2.2 a_05_2 + r_01_2 + 11 x_01_2 <= r_01_1;
4.4 a_12_1 + 4.4 a_13_1 + 4.4 a_02_1 + 4.4 a_06_1 + 4.4 a_07_1 + r_02_1 + 11 x_02_1 <= r_02_0;
4.4 a_12_2 + 4.4 a_13_2 + 4.4 a_02_2 + 4.4 a_06_2 + 4.4 a_07_2 + r_02_2 + 11 x_02_2 <= r_02_1;
4.4 a_14_1 + 4.4 a_15_1 + 4.4 a_03_1 + 4.4 a_08_1 + 4.4 a_09_1 + r_03_1 + 11 x_03_1 <= r_03_0;
4.4 a_14_2 + 4.4 a_15_2 + 4.4 a_03_2 + 4.4 a_08_2 + 4.4 a_09_2 + r_03_2 + 11 x_03_2 <= r_03_1;
4.4 a_10_1 + 4.4 a_04_1 + r_04_1 + 11 x_04_1 <= r_04_0;
4.4 a_10_2 + 4.4 a_04_2 + r_04_2 + 11 x_04_2 <= r_04_1;
4.4 a_11_1 + 4.4 a_05_1 + r_05_1 + 11 x_05_1 <= r_05_0;
4.4 a_11_2 + 4.4 a_05_2 + r_05_2 + 11 x_05_2 <= r_05_1;
2.2 a_12_1 + 2.2 a_06_1 + r_06_1 + 11 x_06_1 <= r_06_0;
2.2 a_12_2 + 2.2 a_06_2 + r_06_2 + 11 x_06_2 <= r_06_1;
4.4 a_13_1 + 4.4 a_07_1 + r_07_1 + 11 x_07_1 <= r_07_0;
4.4 a_13_2 + 4.4 a_07_2 + r_07_2 + 11 x_07_2 <= r_07_1;
4.4 a_14_1 + 4.4 a_08_1 + r_08_1 + 11 x_08_1 <= r_08_0;
4.4 a_14_2 + 4.4 a_08_2 + r_08_2 + 11 x_08_2 <= r_08_1;
2.2 a_15_1 + 2.2 a_09_1 + r_09_1 + 11 x_09_1 <= r_09_0;
2.2 a_15_2 + 2.2 a_09_2 + r_09_2 + 11 x_09_2 <= r_09_1;
4.4 a_10_1 + r_10_1 + 11 x_10_1 <= r_10_0;
4.4 a_10_2 + r_10_2 + 11 x_10_2 <= r_10_1;
4.4 a_11_1 + r_11_1 + 11 x_11_1 <= r_11_0;
4.4 a_11_2 + r_11_2 + 11 x_11_2 <= r_11_1;
4.4 a_12_1 + r_12_1 + 11 x_12_1 <= r_12_0;
4.4 a_12_2 + r_12_2 + 11 x_12_2 <= r_12_1;
2.2 a_13_1 + r_13_1 + 11 x_13_1 <= r_13_0;
2.2 a_13_2 + r_13_2 + 11 x_13_2 <= r_13_1;
2.2 a_14_1 + r_14_1 + 11 x_14_1 <= r_14_0;
2.2 a_14_2 + r_14_2 + 11 x_14_2 <= r_14_1;
4.4 a_15_1 + r_15_1 + 11 x_15_1 <= r_15_0;
4.4 a_15_2 + r_15_2 + 11 x_15_2 <= r_15_1;
25 a_00_1 + t_00_1 <= t_00_0;
25 a_00_2 + t_00_2 <= t_00_1;
20 a_01_1 + t_01_1 <= t_01_0;
20 a_01_2 + t_01_2 <= t_01_1;
25 a_02_1 + t_02_1 <= t_02_0;
25 a_02_2 + t_02_2 <= t_02_1;
25 a_03_1 + t_03_1 <= t_03_0;
25 a_03_2 + t_03_2 <= t_03_1;
20 a_04_1 + 20 a_06_1 + t_04_1 <= t_04_0;
20 a_04_2 + 20 a_06_2 + t_04_2 <= t_04_1;
25 a_07_1 + 25 a_08_1 + t_05_1 <= t_05_0;
25 a_07_2 + 25 a_08_2 + t_05_2 <= t_05_1;
20 a_05_1 + 20 a_09_1 + t_06_1 <= t_06_0;
20 a_05_2 + 20 a_09_2 + t_06_2 <= t_06_1;
20 a_10_1 + 20 a_11_1 + 20 a_12_1 + 20 a_13_1 + 20 a_14_1 + 20 a_15_1 + t_07_1 <= t_07_0;
20 a_10_2 + 20 a_11_2 + 20 a_12_2 + 20 a_13_2 + 20 a_14_2 + 20 a_15_2 + t_07_2 <= t_07_1;
25 a_00_0 + t_00_0 <= T;
20 a_01_0 + t_01_0 <= T;
25 a_02_0 + t_02_0 <= T;
25 a_03_0 + t_03_0 <= T;
20 a_04_0 + 20 a_06_0 + t_04_0 <= T;
25 a_07_0 + 25 a_08_0 + t_05_0 <= T;
20 a_05_0 + 20 a_09_0 + t_06_0 <= T;
20 a_10_0 + 20 a_11_0 + 20 a_12_0 + 20 a_13_0 + 20 a_14_0 + 20 a_15_0 + t_07_0 <= T;
a_00_0 <= 10000 x_00_0;
a_00_1 <= 10000 x_00_1;
a_00_2 <= 10000 x_00_2;
a_10_0 + a_11_0 + a_01_0 + a_04_0 + a_05_0 <= 10000 x_01_0;
a_10_1 + a_11_1 + a_01_1 + a_04_1 + a_05_1 <= 10000 x_01_1;
a_10_2 + a_11_2 + a_01_2 + a_04_2 + a_05_2 <= 10000 x_01_2;
a_12_0 + a_13_0 + a_02_0 + a_06_0 + a_07_0 <= 10000 x_02_0;
a_12_1 + a_13_1 + a_02_1 + a_06_1 + a_07_1 <= 10000 x_02_1;
a_12_2 + a_13_2 + a_02_2 + a_06_2 + a_07_2 <= 10000 x_02_2;
a_14_0 + a_15_0 + a_03_0 + a_08_0 + a_09_0 <= 10000 x_03_0;
a_14_1 + a_15_1 + a_03_1 + a_08_1 + a_09_1 <= 10000 x_03_1;
a_14_2 + a_15_2 + a_03_2 + a_08_2 + a_09_2 <= 10000 x_03_2;
a_10_0 + a_04_0 <= 10000 x_04_0;
a_10_1 + a_04_1 <= 10000 x_04_1;
a_10_2 + a_04_2 <= 10000 x_04_2;
a_11_0 + a_05_0 <= 10000 x_05_0;
a_11_1 + a_05_1 <= 10000 x_05_1;
a_11_2 + a_05_2 <= 10000 x_05_2;
a_12_0 + a_06_0 <= 10000 x_06_0;
a_12_1 + a_06_1 <= 10000 x_06_1;
a_12_2 + a_06_2 <= 10000 x_06_2;
a_13_0 + a_07_0 <= 10000 x_07_0;
a_13_1 + a_07_1 <= 10000 x_07_1;
a_13_2 + a_07_2 <= 10000 x_07_2;
a_14_0 + a_08_0 <= 10000 x_08_0;
a_14_1 + a_08_1 <= 10000 x_08_1;
a_14_2 + a_08_2 <= 10000 x_08_2;
a_15_0 + a_09_0 <= 10000 x_09_0;
a_15_1 + a_09_1 <= 10000 x_09_1;
a_15_2 + a_09_2 <= 10000 x_09_2;
a_10_0 <= 10000 x_10_0;
a_10_1 <= 10000 x_10_1;
a_10_2 <= 10000 x_10_2;
a_11_0 <= 10000 x_11_0;
a_11_1 <= 10000 x_11_1;
a_11_2 <= 10000 x_11_2;
a_12_0 <= 10000 x_12_0;
a_12_1 <= 10000 x_12_1;
a_12_2 <= 10000 x_12_2;
a_13_0 <= 10000 x_13_0;
a_13_1 <= 10000 x_13_1;
a_13_2 <= 10000 x_13_2;
a_14_0 <= 10000 x_14_0;
a_14_1 <= 10000 x_14_1;
a_14_2 <= 10000 x_14_2;
a_15_0 <= 10000 x_15_0;
a_15_1 <= 10000 x_15_1;
a_15_2 <= 10000 x_15_2;
a_10_0 + a_10_1 + a_10_2 + a_11_0 + a_11_1 + a_11_2 + a_12_0 + a_12_1 + a_12_2 + a_13_0 + a_13_1 + a_13_2 + a_14_0 + a_14_1 + a_14_2 +
   a_15_0 + a_15_1 + a_15_2 + a_00_0 + a_00_1 + a_00_2 + a_01_0 + a_01_1 + a_01_2 + a_02_0 + a_02_1 + a_02_2 + a_03_0 + a_03_1 + a_03_2 +
   a_04_0 + a_04_1 + a_04_2 + a_05_0 + a_05_1 + a_05_2 + a_06_0 + a_06_1 + a_06_2 + a_07_0 + a_07_1 + a_07_2 + a_08_0 + a_08_1 + a_08_2 +
   a_09_0 + a_09_1 + a_09_2 = 10000;
r_00_0 = rk_00_0;
r_00_1 = rk_00_1;
r_00_2 = rk_00_2;
2.2 a_10_0 + 2.2 a_11_0 + 2.2 a_01_0 + 2.2 a_04_0 + 2.2 a_05_0 + r_01_0 + 11 x_01_0 = rk_01_0;
2.2 a_10_1 + 2.2 a_11_1 + 2.2 a_01_1 + 2.2 a_04_1 + 2.2 a_05_1 + r_01_1 + 11 x_01_1 = rk_01_1;
2.2 a_10_2 + 2.2 a_11_2 + 2.2 a_01_2 + 2.2 a_04_2 + 2.2 a_05_2 + r_01_2 + 11 x_01_2 = rk_01_2;
4.4 a_12_0 + 4.4 a_13_0 + 4.4 a_02_0 + 4.4 a_06_0 + 4.4 a_07_0 + r_02_0 + 11 x_02_0 = rk_02_0;
4.4 a_12_1 + 4.4 a_13_1 + 4.4 a_02_1 + 4.4 a_06_1 + 4.4 a_07_1 + r_02_1 + 11 x_02_1 = rk_02_1;
4.4 a_12_2 + 4.4 a_13_2 + 4.4 a_02_2 + 4.4 a_06_2 + 4.4 a_07_2 + r_02_2 + 11 x_02_2 = rk_02_2;
4.4 a_14_0 + 4.4 a_15_0 + 4.4 a_03_0 + 4.4 a_08_0 + 4.4 a_09_0 + r_03_0 + 11 x_03_0 = rk_03_0;
4.4 a_14_1 + 4.4 a_15_1 + 4.4 a_03_1 + 4.4 a_08_1 + 4.4 a_09_1 + r_03_1 + 11 x_03_1 = rk_03_1;
4.4 a_14_2 + 4.4 a_15_2 + 4.4 a_03_2 + 4.4 a_08_2 + 4.4 a_09_2 + r_03_2 + 11 x_03_2 = rk_03_2;
4.4 a_10_0 + 4.4 a_04_0 + r_04_0 + 11 x_04_0 = rk_04_0;
4.4 a_10_1 + 4.4 a_04_1 + r_04_1 + 11 x_04_1 = rk_04_1;
4.4 a_10_2 + 4.4 a_04_2 + r_04_2 + 11 x_04_2 = rk_04_2;
4.4 a_11_0 + 4.4 a_05_0 + r_05_0 + 11 x_05_0 = rk_05_0;
4.4 a_11_1 + 4.4 a_05_1 + r_05_1 + 11 x_05_1 = rk_05_1;
4.4 a_11_2 + 4.4 a_05_2 + r_05_2 + 11 x_05_2 = rk_05_2;
2.2 a_12_0 + 2.2 a_06_0 + r_06_0 + 11 x_06_0 = rk_06_0;
2.2 a_12_1 + 2.2 a_06_1 + r_06_1 + 11 x_06_1 = rk_06_1;
2.2 a_12_2 + 2.2 a_06_2 + r_06_2 + 11 x_06_2 = rk_06_2;
4.4 a_13_0 + 4.4 a_07_0 + r_07_0 + 11 x_07_0 = rk_07_0;
4.4 a_13_1 + 4.4 a_07_1 + r_07_1 + 11 x_07_1 = rk_07_1;
4.4 a_13_2 + 4.4 a_07_2 + r_07_2 + 11 x_07_2 = rk_07_2;
4.4 a_14_0 + 4.4 a_08_0 + r_08_0 + 11 x_08_0 = rk_08_0;
4.4 a_14_1 + 4.4 a_08_1 + r_08_1 + 11 x_08_1 = rk_08_1;
4.4 a_14_2 + 4.4 a_08_2 + r_08_2 + 11 x_08_2 = rk_08_2;
2.2 a_15_0 + 2.2 a_09_0 + r_09_0 + 11 x_09_0 = rk_09_0;
2.2 a_15_1 + 2.2 a_09_1 + r_09_1 + 11 x_09_1 = rk_09_1;
2.2 a_15_2 + 2.2 a_09_2 + r_09_2 + 11 x_09_2 = rk_09_2;
4.4 a_10_0 + r_10_0 + 11 x_10_0 = rk_10_0;
4.4 a_10_1 + r_10_1 + 11 x_10_1 = rk_10_1;
4.4 a_10_2 + r_10_2 + 11 x_10_2 = rk_10_2;
4.4 a_11_0 + r_11_0 + 11 x_11_0 = rk_11_0;
4.4 a_11_1 + r_11_1 + 11 x_11_1 = rk_11_1;
4.4 a_11_2 + r_11_2 + 11 x_11_2 = rk_11_2;
4.4 a_12_0 + r_12_0 + 11 x_12_0 = rk_12_0;
4.4 a_12_1 + r_12_1 + 11 x_12_1 = rk_12_1;
4.4 a_12_2 + r_12_2 + 11 x_12_2 = rk_12_2;
2.2 a_13_0 + r_13_0 + 11 x_13_0 = rk_13_0;
2.2 a_13_1 + r_13_1 + 11 x_13_1 = rk_13_1;
2.2 a_13_2 + r_13_2 + 11 x_13_2 = rk_13_2;
2.2 a_14_0 + r_14_0 + 11 x_14_0 = rk_14_0;
2.2 a_14_1 + r_14_1 + 11 x_14_1 = rk_14_1;
2.2 a_14_2 + r_14_2 + 11 x_14_2 = rk_14_2;
4.4 a_15_0 + r_15_0 + 11 x_15_0 = rk_15_0;
4.4 a_15_1 + r_15_1 + 11 x_15_1 = rk_15_1;
4.4 a_15_2 + r_15_2 + 11 x_15_2 = rk_15_2;
25 a_00_0 + t_00_0 = tk_00_0;
25 a_00_1 + t_00_1 = tk_00_1;
25 a_00_2 + t_00_2 = tk_00_2;
20 a_01_0 + t_01_0 = tk_01_0;
20 a_01_1 + t_01_1 = tk_01_1;
20 a_01_2 + t_01_2 = tk_01_2;
25 a_02_0 + t_02_0 = tk_02_0;
25 a_02_1 + t_02_1 = tk_02_1;
25 a_02_2 + t_02_2 = tk_02_2;
25 a_03_0 + t_03_0 = tk_03_0;
25 a_03_1 + t_03_1 = tk_03_1;
25 a_03_2 + t_03_2 = tk_03_2;
20 a_04_0 + 20 a_06_0 + t_04_0 = tk_04_0;
20 a_04_1 + 20 a_06_1 + t_04_1 = tk_04_1;
20 a_04_2 + 20 a_06_2 + t_04_2 = tk_04_2;
25 a_07_0 + 25 a_08_0 + t_05_0 = tk_05_0;
25 a_07_1 + 25 a_08_1 + t_05_1 = tk_05_1;
25 a_07_2 + 25 a_08_2 + t_05_2 = tk_05_2;
20 a_05_0 + 20 a_09_0 + t_06_0 = tk_06_0;
20 a_05_1 + 20 a_09_1 + t_06_1 = tk_06_1;
20 a_05_2 + 20 a_09_2 + t_06_2 = tk_06_2;
20 a_10_0 + 20 a_11_0 + 20 a_12_0 + 20 a_13_0 + 20 a_14_0 + 20 a_15_0 + t_07_0 = tk_07_0;
20 a_10_1 + 20 a_11_1 + 20 a_12_1 + 20 a_13_1 + 20 a_14_1 + 20 a_15_1 + t_07_1 = tk_07_1;
20 a_10_2 + 20 a_11_2 + 20 a_12_2 + 20 a_13_2 + 20 a_14_2 + 20 a_15_2 + t_07_2 = tk_07_2;
Sa_0_0 = a_00_0;
Sa_0_1 = a_00_1;
Sa_0_2 = a_00_2;
Sa_1_0 = a_10_0 + a_11_0 + a_01_0 + a_04_0 + a_05_0;
Sa_1_1 = a_10_1 + a_11_1 + a_01_1 + a_04_1 + a_05_1;
Sa_1_2 = a_10_2 + a_11_2 + a_01_2 + a_04_2 + a_05_2;
Sa_2_0 = a_12_0 + a_13_0 + a_02_0 + a_06_0 + a_07_0;
Sa_2_1 = a_12_1 + a_13_1 + a_02_1 + a_06_1 + a_07_1;
Sa_2_2 = a_12_2 + a_13_2 + a_02_2 + a_06_2 + a_07_2;
Sa_3_0 = a_14_0 + a_15_0 + a_03_0 + a_08_0 + a_09_0;
Sa_3_1 = a_14_1 + a_15_1 + a_03_1 + a_08_1 + a_09_1;
Sa_3_2 = a_14_2 + a_15_2 + a_03_2 + a_08_2 + a_09_2;
Sa_4_0 = a_10_0 + a_04_0;
Sa_4_1 = a_10_1 + a_04_1;
Sa_4_2 = a_10_2 + a_04_2;
Sa_5_0 = a_11_0 + a_05_0;
Sa_5_1 = a_11_1 + a_05_1;
Sa_5_2 = a_11_2 + a_05_2;
Sa_6_0 = a_12_0 + a_06_0;
Sa_6_1 = a_12_1 + a_06_1;
Sa_6_2 = a_12_2 + a_06_2;
Sa_7_0 = a_13_0 + a_07_0;
Sa_7_1 = a_13_1 + a_07_1;
Sa_7_2 = a_13_2 + a_07_2;
Sa_8_0 = a_14_0 + a_08_0;
Sa_8_1 = a_14_1 + a_08_1;
Sa_8_2 = a_14_2 + a_08_2;
Sa_9_0 = a_15_0 + a_09_0;
Sa_9_1 = a_15_1 + a_09_1;
Sa_9_2 = a_15_2 + a_09_2;
Sa_10_0 = a_10_0;
Sa_10_1 = a_10_1;
Sa_10_2 = a_10_2;
Sa_11_0 = a_11_0;
Sa_11_1 = a_11_1;
Sa_11_2 = a_11_2;
Sa_12_0 = a_12_0;
Sa_12_1 = a_12_1;
Sa_12_2 = a_12_2;
Sa_13_0 = a_13_0;
Sa_13_1 = a_13_1;
Sa_13_2 = a_13_2;
Sa_14_0 = a_14_0;
Sa_14_1 = a_14_1;
Sa_14_2 = a_14_2;
Sa_15_0 = a_15_0;
Sa_15_1 = a_15_1;
Sa_15_2 = a_15_2;
m = 3;
pv_0 = 0;
pv_1 = 0;
pv_2 = 0;
pv_3 = 0;
pv_4 = 1;
pv_5 = 1;
pv_6 = 2;
pv_7 = 2;
pv_8 = 3;
pv_9 = 3;
pv_10 = 4;
pv_11 = 5;
pv_12 = 6;
pv_13 = 7;
pv_14 = 8;
pv_15 = 9;
pc_0 = 0;
pc_1 = 1;
pc_2 = 2;
pc_3 = 3;
pc_4 = 4;
pc_5 = 6;
pc_6 = 4;
pc_7 = 5;
pc_8 = 5;
pc_9 = 6;
pc_10 = 7;
pc_11 = 7;
pc_12 = 7;
pc_13 = 7;
pc_14 = 7;
pc_15 = 7;
int x_00_0, x_00_1, x_00_2, x_01_0, x_01_1, x_01_2, x_02_0, x_02_1, x_02_2, x_03_0, x_03_1, x_03_2, x_04_0, x_04_1, x_04_2, x_05_0, x_05_1,
   x_05_2, x_06_0, x_06_1, x_06_2, x_07_0, x_07_1, x_07_2, x_08_0, x_08_1, x_08_2, x_09_0, x_09_1, x_09_2, x_10_0, x_10_1, x_10_2, x_11_0,
   x_11_1, x_11_2, x_12_0, x_12_1, x_12_2, x_13_0, x_13_1, x_13_2, x_14_0, x_14_1, x_14_2, x_15_0, x_15_1, x_15_2;